Mack/Bortfeldt(2008)
Bin-Packing-Problem
BP-RG/SBSBPP/SSSCSP
Testcase-ID	3
Problem-ID	14
no_item_types	5
no_items	1898
CONTAINER_DATA (l,w,h)	485	131	118
ITEMS_DATA:
Type	x	y	z	no_items
1	113	92	33	399
2	92	64	33	396
3	99	37	30	366
4	57	33	29	395
5	52	37	28	342
